; benchmark generated from python API
(set-info :status unknown)
(declare-fun cell_1_4 () Int)
(declare-fun cell_1_8 () Int)
(declare-fun cell_1_9 () Int)
(declare-fun cell_2_2 () Int)
(declare-fun cell_2_5 () Int)
(declare-fun cell_2_7 () Int)
(declare-fun cell_3_1 () Int)
(declare-fun cell_3_4 () Int)
(declare-fun cell_4_2 () Int)
(declare-fun cell_4_9 () Int)
(declare-fun cell_5_1 () Int)
(declare-fun cell_5_6 () Int)
(declare-fun cell_6_6 () Int)
(declare-fun cell_6_8 () Int)
(declare-fun cell_7_3 () Int)
(declare-fun cell_7_7 () Int)
(declare-fun cell_8_5 () Int)
(declare-fun cell_8_7 () Int)
(declare-fun cell_9_3 () Int)
(declare-fun cell_9_4 () Int)
(declare-fun cell_1_1 () Int)
(declare-fun cell_2_1 () Int)
(declare-fun cell_4_1 () Int)
(declare-fun cell_6_1 () Int)
(declare-fun cell_7_1 () Int)
(declare-fun cell_8_1 () Int)
(declare-fun cell_9_1 () Int)
(declare-fun cell_1_2 () Int)
(declare-fun cell_3_2 () Int)
(declare-fun cell_5_2 () Int)
(declare-fun cell_6_2 () Int)
(declare-fun cell_7_2 () Int)
(declare-fun cell_8_2 () Int)
(declare-fun cell_9_2 () Int)
(declare-fun cell_1_3 () Int)
(declare-fun cell_2_3 () Int)
(declare-fun cell_3_3 () Int)
(declare-fun cell_4_3 () Int)
(declare-fun cell_5_3 () Int)
(declare-fun cell_6_3 () Int)
(declare-fun cell_8_3 () Int)
(declare-fun cell_2_4 () Int)
(declare-fun cell_4_4 () Int)
(declare-fun cell_5_4 () Int)
(declare-fun cell_6_4 () Int)
(declare-fun cell_7_4 () Int)
(declare-fun cell_8_4 () Int)
(declare-fun cell_1_5 () Int)
(declare-fun cell_3_5 () Int)
(declare-fun cell_4_5 () Int)
(declare-fun cell_5_5 () Int)
(declare-fun cell_6_5 () Int)
(declare-fun cell_7_5 () Int)
(declare-fun cell_9_5 () Int)
(declare-fun cell_1_6 () Int)
(declare-fun cell_2_6 () Int)
(declare-fun cell_3_6 () Int)
(declare-fun cell_4_6 () Int)
(declare-fun cell_7_6 () Int)
(declare-fun cell_8_6 () Int)
(declare-fun cell_9_6 () Int)
(declare-fun cell_1_7 () Int)
(declare-fun cell_3_7 () Int)
(declare-fun cell_4_7 () Int)
(declare-fun cell_5_7 () Int)
(declare-fun cell_6_7 () Int)
(declare-fun cell_9_7 () Int)
(declare-fun cell_2_8 () Int)
(declare-fun cell_3_8 () Int)
(declare-fun cell_4_8 () Int)
(declare-fun cell_5_8 () Int)
(declare-fun cell_7_8 () Int)
(declare-fun cell_8_8 () Int)
(declare-fun cell_9_8 () Int)
(declare-fun cell_2_9 () Int)
(declare-fun cell_3_9 () Int)
(declare-fun cell_5_9 () Int)
(declare-fun cell_6_9 () Int)
(declare-fun cell_7_9 () Int)
(declare-fun cell_8_9 () Int)
(declare-fun cell_9_9 () Int)
(assert
 (= cell_1_4 3))
(assert
 (= cell_1_8 1))
(assert
 (= cell_1_9 2))
(assert
 (= cell_2_2 1))
(assert
 (= cell_2_5 2))
(assert
 (= cell_2_7 3))
(assert
 (= cell_3_1 2))
(assert
 (= cell_3_4 1))
(assert
 (= cell_4_2 2))
(assert
 (= cell_4_9 1))
(assert
 (= cell_5_1 1))
(assert
 (= cell_5_6 2))
(assert
 (= cell_6_6 1))
(assert
 (= cell_6_8 2))
(assert
 (= cell_7_3 2))
(assert
 (= cell_7_7 1))
(assert
 (= cell_8_5 1))
(assert
 (= cell_8_7 2))
(assert
 (= cell_9_3 1))
(assert
 (= cell_9_4 2))
(assert
 (let (($x2000 (= cell_1_1 9)))
 (let (($x1757 (= cell_1_1 8)))
 (let (($x3272 (= cell_1_1 7)))
 (let (($x5225 (= cell_1_1 6)))
 (let (($x2095 (= cell_1_1 5)))
 (let (($x668 (= cell_1_1 4)))
 (let (($x4803 (= cell_1_1 3)))
 (let (($x7650 (= cell_1_1 2)))
 (let (($x2874 (= cell_1_1 1)))
 (or $x2874 $x7650 $x4803 $x668 $x2095 $x5225 $x3272 $x1757 $x2000)))))))))))
(assert
 (let (($x2175 (= cell_2_1 9)))
 (let (($x1170 (= cell_2_1 8)))
 (let (($x129 (= cell_2_1 7)))
 (let (($x825 (= cell_2_1 6)))
 (let (($x1615 (= cell_2_1 5)))
 (let (($x927 (= cell_2_1 4)))
 (let (($x1875 (= cell_2_1 3)))
 (let (($x6813 (= cell_2_1 2)))
 (let (($x5272 (= cell_2_1 1)))
 (or $x5272 $x6813 $x1875 $x927 $x1615 $x825 $x129 $x1170 $x2175)))))))))))
(assert
 (let (($x3031 (= cell_3_1 2)))
 (or (= cell_3_1 1) $x3031 (= cell_3_1 3) (= cell_3_1 4) (= cell_3_1 5) (= cell_3_1 6) (= cell_3_1 7) (= cell_3_1 8) (= cell_3_1 9))))
(assert
 (let (($x1543 (= cell_4_1 9)))
 (let (($x821 (= cell_4_1 8)))
 (let (($x2751 (= cell_4_1 7)))
 (let (($x503 (= cell_4_1 6)))
 (let (($x1640 (= cell_4_1 5)))
 (let (($x678 (= cell_4_1 4)))
 (let (($x2356 (= cell_4_1 3)))
 (let (($x5011 (= cell_4_1 2)))
 (let (($x1576 (= cell_4_1 1)))
 (or $x1576 $x5011 $x2356 $x678 $x1640 $x503 $x2751 $x821 $x1543)))))))))))
(assert
 (let (($x526 (= cell_5_1 1)))
 (or $x526 (= cell_5_1 2) (= cell_5_1 3) (= cell_5_1 4) (= cell_5_1 5) (= cell_5_1 6) (= cell_5_1 7) (= cell_5_1 8) (= cell_5_1 9))))
(assert
 (let (($x5635 (= cell_6_1 9)))
 (let (($x400 (= cell_6_1 8)))
 (let (($x7591 (= cell_6_1 7)))
 (let (($x831 (= cell_6_1 6)))
 (let (($x703 (= cell_6_1 5)))
 (let (($x2582 (= cell_6_1 4)))
 (let (($x302 (= cell_6_1 3)))
 (let (($x2463 (= cell_6_1 2)))
 (let (($x3364 (= cell_6_1 1)))
 (or $x3364 $x2463 $x302 $x2582 $x703 $x831 $x7591 $x400 $x5635)))))))))))
(assert
 (let (($x332 (= cell_7_1 9)))
 (let (($x5242 (= cell_7_1 8)))
 (let (($x1082 (= cell_7_1 7)))
 (let (($x1235 (= cell_7_1 6)))
 (let (($x449 (= cell_7_1 5)))
 (let (($x1162 (= cell_7_1 4)))
 (let (($x3178 (= cell_7_1 3)))
 (let (($x3297 (= cell_7_1 2)))
 (let (($x6832 (= cell_7_1 1)))
 (or $x6832 $x3297 $x3178 $x1162 $x449 $x1235 $x1082 $x5242 $x332)))))))))))
(assert
 (let (($x360 (= cell_8_1 9)))
 (let (($x3245 (= cell_8_1 8)))
 (let (($x743 (= cell_8_1 7)))
 (let (($x3180 (= cell_8_1 6)))
 (let (($x556 (= cell_8_1 5)))
 (let (($x50 (= cell_8_1 4)))
 (let (($x1435 (= cell_8_1 3)))
 (let (($x1018 (= cell_8_1 2)))
 (let (($x1823 (= cell_8_1 1)))
 (or $x1823 $x1018 $x1435 $x50 $x556 $x3180 $x743 $x3245 $x360)))))))))))
(assert
 (let (($x102 (= cell_9_1 9)))
 (let (($x3271 (= cell_9_1 8)))
 (let (($x2944 (= cell_9_1 7)))
 (let (($x809 (= cell_9_1 6)))
 (let (($x2468 (= cell_9_1 5)))
 (let (($x2611 (= cell_9_1 4)))
 (let (($x717 (= cell_9_1 3)))
 (let (($x1973 (= cell_9_1 2)))
 (let (($x2050 (= cell_9_1 1)))
 (or $x2050 $x1973 $x717 $x2611 $x2468 $x809 $x2944 $x3271 $x102)))))))))))
(assert
 (let (($x1475 (= cell_1_2 9)))
 (let (($x1606 (= cell_1_2 8)))
 (let (($x2694 (= cell_1_2 7)))
 (let (($x2777 (= cell_1_2 6)))
 (let (($x694 (= cell_1_2 5)))
 (let (($x2204 (= cell_1_2 4)))
 (let (($x4543 (= cell_1_2 3)))
 (let (($x1999 (= cell_1_2 2)))
 (let (($x6499 (= cell_1_2 1)))
 (or $x6499 $x1999 $x4543 $x2204 $x694 $x2777 $x2694 $x1606 $x1475)))))))))))
(assert
 (let (($x450 (= cell_2_2 1)))
 (or $x450 (= cell_2_2 2) (= cell_2_2 3) (= cell_2_2 4) (= cell_2_2 5) (= cell_2_2 6) (= cell_2_2 7) (= cell_2_2 8) (= cell_2_2 9))))
(assert
 (let (($x4552 (= cell_3_2 9)))
 (let (($x532 (= cell_3_2 8)))
 (let (($x1565 (= cell_3_2 7)))
 (let (($x1337 (= cell_3_2 6)))
 (let (($x1115 (= cell_3_2 5)))
 (let (($x1164 (= cell_3_2 4)))
 (let (($x5768 (= cell_3_2 3)))
 (let (($x1885 (= cell_3_2 2)))
 (let (($x891 (= cell_3_2 1)))
 (or $x891 $x1885 $x5768 $x1164 $x1115 $x1337 $x1565 $x532 $x4552)))))))))))
(assert
 (let (($x3147 (= cell_4_2 2)))
 (or (= cell_4_2 1) $x3147 (= cell_4_2 3) (= cell_4_2 4) (= cell_4_2 5) (= cell_4_2 6) (= cell_4_2 7) (= cell_4_2 8) (= cell_4_2 9))))
(assert
 (let (($x2917 (= cell_5_2 9)))
 (let (($x539 (= cell_5_2 8)))
 (let (($x2710 (= cell_5_2 7)))
 (let (($x6900 (= cell_5_2 6)))
 (let (($x3876 (= cell_5_2 5)))
 (let (($x2231 (= cell_5_2 4)))
 (let (($x82 (= cell_5_2 3)))
 (let (($x940 (= cell_5_2 2)))
 (let (($x6728 (= cell_5_2 1)))
 (or $x6728 $x940 $x82 $x2231 $x3876 $x6900 $x2710 $x539 $x2917)))))))))))
(assert
 (let (($x4875 (= cell_6_2 9)))
 (let (($x3213 (= cell_6_2 8)))
 (let (($x1821 (= cell_6_2 7)))
 (let (($x2604 (= cell_6_2 6)))
 (let (($x910 (= cell_6_2 5)))
 (let (($x1215 (= cell_6_2 4)))
 (let (($x2686 (= cell_6_2 3)))
 (let (($x2973 (= cell_6_2 2)))
 (let (($x3833 (= cell_6_2 1)))
 (or $x3833 $x2973 $x2686 $x1215 $x910 $x2604 $x1821 $x3213 $x4875)))))))))))
(assert
 (let (($x2526 (= cell_7_2 9)))
 (let (($x1791 (= cell_7_2 8)))
 (let (($x155 (= cell_7_2 7)))
 (let (($x3058 (= cell_7_2 6)))
 (let (($x2558 (= cell_7_2 5)))
 (let (($x275 (= cell_7_2 4)))
 (let (($x486 (= cell_7_2 3)))
 (let (($x959 (= cell_7_2 2)))
 (let (($x2324 (= cell_7_2 1)))
 (or $x2324 $x959 $x486 $x275 $x2558 $x3058 $x155 $x1791 $x2526)))))))))))
(assert
 (let (($x541 (= cell_8_2 9)))
 (let (($x1117 (= cell_8_2 8)))
 (let (($x2726 (= cell_8_2 7)))
 (let (($x384 (= cell_8_2 6)))
 (let (($x3152 (= cell_8_2 5)))
 (let (($x3453 (= cell_8_2 4)))
 (let (($x649 (= cell_8_2 3)))
 (let (($x1335 (= cell_8_2 2)))
 (let (($x762 (= cell_8_2 1)))
 (or $x762 $x1335 $x649 $x3453 $x3152 $x384 $x2726 $x1117 $x541)))))))))))
(assert
 (let (($x4105 (= cell_9_2 9)))
 (let (($x1587 (= cell_9_2 8)))
 (let (($x6627 (= cell_9_2 7)))
 (let (($x2123 (= cell_9_2 6)))
 (let (($x1844 (= cell_9_2 5)))
 (let (($x4952 (= cell_9_2 4)))
 (let (($x924 (= cell_9_2 3)))
 (let (($x5508 (= cell_9_2 2)))
 (let (($x2011 (= cell_9_2 1)))
 (or $x2011 $x5508 $x924 $x4952 $x1844 $x2123 $x6627 $x1587 $x4105)))))))))))
(assert
 (let (($x404 (= cell_1_3 9)))
 (let (($x2170 (= cell_1_3 8)))
 (let (($x1134 (= cell_1_3 7)))
 (let (($x8377 (= cell_1_3 6)))
 (let (($x1409 (= cell_1_3 5)))
 (let (($x1564 (= cell_1_3 4)))
 (let (($x1325 (= cell_1_3 3)))
 (let (($x5784 (= cell_1_3 2)))
 (let (($x2409 (= cell_1_3 1)))
 (or $x2409 $x5784 $x1325 $x1564 $x1409 $x8377 $x1134 $x2170 $x404)))))))))))
(assert
 (let (($x918 (= cell_2_3 9)))
 (let (($x7980 (= cell_2_3 8)))
 (let (($x1722 (= cell_2_3 7)))
 (let (($x2531 (= cell_2_3 6)))
 (let (($x1025 (= cell_2_3 5)))
 (let (($x6139 (= cell_2_3 4)))
 (let (($x312 (= cell_2_3 3)))
 (let (($x2900 (= cell_2_3 2)))
 (let (($x366 (= cell_2_3 1)))
 (or $x366 $x2900 $x312 $x6139 $x1025 $x2531 $x1722 $x7980 $x918)))))))))))
(assert
 (let (($x2897 (= cell_3_3 9)))
 (let (($x4327 (= cell_3_3 8)))
 (let (($x3279 (= cell_3_3 7)))
 (let (($x875 (= cell_3_3 6)))
 (let (($x2509 (= cell_3_3 5)))
 (let (($x1048 (= cell_3_3 4)))
 (let (($x2515 (= cell_3_3 3)))
 (let (($x166 (= cell_3_3 2)))
 (let (($x2912 (= cell_3_3 1)))
 (or $x2912 $x166 $x2515 $x1048 $x2509 $x875 $x3279 $x4327 $x2897)))))))))))
(assert
 (let (($x3057 (= cell_4_3 9)))
 (let (($x1009 (= cell_4_3 8)))
 (let (($x3696 (= cell_4_3 7)))
 (let (($x5653 (= cell_4_3 6)))
 (let (($x2918 (= cell_4_3 5)))
 (let (($x2165 (= cell_4_3 4)))
 (let (($x1734 (= cell_4_3 3)))
 (let (($x311 (= cell_4_3 2)))
 (let (($x3156 (= cell_4_3 1)))
 (or $x3156 $x311 $x1734 $x2165 $x2918 $x5653 $x3696 $x1009 $x3057)))))))))))
(assert
 (let (($x5438 (= cell_5_3 9)))
 (let (($x2930 (= cell_5_3 8)))
 (let (($x3673 (= cell_5_3 7)))
 (let (($x196 (= cell_5_3 6)))
 (let (($x2086 (= cell_5_3 5)))
 (let (($x2513 (= cell_5_3 4)))
 (let (($x2262 (= cell_5_3 3)))
 (let (($x4141 (= cell_5_3 2)))
 (let (($x1653 (= cell_5_3 1)))
 (or $x1653 $x4141 $x2262 $x2513 $x2086 $x196 $x3673 $x2930 $x5438)))))))))))
(assert
 (let (($x620 (= cell_6_3 9)))
 (let (($x370 (= cell_6_3 8)))
 (let (($x2065 (= cell_6_3 7)))
 (let (($x1865 (= cell_6_3 6)))
 (let (($x4656 (= cell_6_3 5)))
 (let (($x452 (= cell_6_3 4)))
 (let (($x1767 (= cell_6_3 3)))
 (let (($x6928 (= cell_6_3 2)))
 (let (($x487 (= cell_6_3 1)))
 (or $x487 $x6928 $x1767 $x452 $x4656 $x1865 $x2065 $x370 $x620)))))))))))
(assert
 (let (($x3106 (= cell_7_3 2)))
 (or (= cell_7_3 1) $x3106 (= cell_7_3 3) (= cell_7_3 4) (= cell_7_3 5) (= cell_7_3 6) (= cell_7_3 7) (= cell_7_3 8) (= cell_7_3 9))))
(assert
 (let (($x813 (= cell_8_3 9)))
 (let (($x5583 (= cell_8_3 8)))
 (let (($x4958 (= cell_8_3 7)))
 (let (($x502 (= cell_8_3 6)))
 (let (($x204 (= cell_8_3 5)))
 (let (($x2580 (= cell_8_3 4)))
 (let (($x57 (= cell_8_3 3)))
 (let (($x1964 (= cell_8_3 2)))
 (let (($x6787 (= cell_8_3 1)))
 (or $x6787 $x1964 $x57 $x2580 $x204 $x502 $x4958 $x5583 $x813)))))))))))
(assert
 (let (($x3299 (= cell_9_3 1)))
 (or $x3299 (= cell_9_3 2) (= cell_9_3 3) (= cell_9_3 4) (= cell_9_3 5) (= cell_9_3 6) (= cell_9_3 7) (= cell_9_3 8) (= cell_9_3 9))))
(assert
 (let (($x4916 (= cell_1_4 3)))
 (or (= cell_1_4 1) (= cell_1_4 2) $x4916 (= cell_1_4 4) (= cell_1_4 5) (= cell_1_4 6) (= cell_1_4 7) (= cell_1_4 8) (= cell_1_4 9))))
(assert
 (let (($x4911 (= cell_2_4 9)))
 (let (($x1683 (= cell_2_4 8)))
 (let (($x1076 (= cell_2_4 7)))
 (let (($x3382 (= cell_2_4 6)))
 (let (($x247 (= cell_2_4 5)))
 (let (($x2001 (= cell_2_4 4)))
 (let (($x2791 (= cell_2_4 3)))
 (let (($x2432 (= cell_2_4 2)))
 (let (($x2116 (= cell_2_4 1)))
 (or $x2116 $x2432 $x2791 $x2001 $x247 $x3382 $x1076 $x1683 $x4911)))))))))))
(assert
 (let (($x20 (= cell_3_4 1)))
 (or $x20 (= cell_3_4 2) (= cell_3_4 3) (= cell_3_4 4) (= cell_3_4 5) (= cell_3_4 6) (= cell_3_4 7) (= cell_3_4 8) (= cell_3_4 9))))
(assert
 (let (($x48 (= cell_4_4 9)))
 (let (($x785 (= cell_4_4 8)))
 (let (($x2784 (= cell_4_4 7)))
 (let (($x154 (= cell_4_4 6)))
 (let (($x395 (= cell_4_4 5)))
 (let (($x981 (= cell_4_4 4)))
 (let (($x1003 (= cell_4_4 3)))
 (let (($x413 (= cell_4_4 2)))
 (let (($x1021 (= cell_4_4 1)))
 (or $x1021 $x413 $x1003 $x981 $x395 $x154 $x2784 $x785 $x48)))))))))))
(assert
 (let (($x4612 (= cell_5_4 9)))
 (let (($x4579 (= cell_5_4 8)))
 (let (($x508 (= cell_5_4 7)))
 (let (($x1125 (= cell_5_4 6)))
 (let (($x5954 (= cell_5_4 5)))
 (let (($x2307 (= cell_5_4 4)))
 (let (($x141 (= cell_5_4 3)))
 (let (($x4305 (= cell_5_4 2)))
 (let (($x2235 (= cell_5_4 1)))
 (or $x2235 $x4305 $x141 $x2307 $x5954 $x1125 $x508 $x4579 $x4612)))))))))))
(assert
 (let (($x4977 (= cell_6_4 9)))
 (let (($x2047 (= cell_6_4 8)))
 (let (($x1648 (= cell_6_4 7)))
 (let (($x3024 (= cell_6_4 6)))
 (let (($x6089 (= cell_6_4 5)))
 (let (($x709 (= cell_6_4 4)))
 (let (($x1308 (= cell_6_4 3)))
 (let (($x6007 (= cell_6_4 2)))
 (let (($x2689 (= cell_6_4 1)))
 (or $x2689 $x6007 $x1308 $x709 $x6089 $x3024 $x1648 $x2047 $x4977)))))))))))
(assert
 (let (($x3383 (= cell_7_4 9)))
 (let (($x1832 (= cell_7_4 8)))
 (let (($x446 (= cell_7_4 7)))
 (let (($x2797 (= cell_7_4 6)))
 (let (($x1968 (= cell_7_4 5)))
 (let (($x476 (= cell_7_4 4)))
 (let (($x3376 (= cell_7_4 3)))
 (let (($x563 (= cell_7_4 2)))
 (let (($x3072 (= cell_7_4 1)))
 (or $x3072 $x563 $x3376 $x476 $x1968 $x2797 $x446 $x1832 $x3383)))))))))))
(assert
 (let (($x471 (= cell_8_4 9)))
 (let (($x1454 (= cell_8_4 8)))
 (let (($x1096 (= cell_8_4 7)))
 (let (($x3309 (= cell_8_4 6)))
 (let (($x2232 (= cell_8_4 5)))
 (let (($x1955 (= cell_8_4 4)))
 (let (($x331 (= cell_8_4 3)))
 (let (($x5164 (= cell_8_4 2)))
 (let (($x1886 (= cell_8_4 1)))
 (or $x1886 $x5164 $x331 $x1955 $x2232 $x3309 $x1096 $x1454 $x471)))))))))))
(assert
 (let (($x5997 (= cell_9_4 2)))
 (or (= cell_9_4 1) $x5997 (= cell_9_4 3) (= cell_9_4 4) (= cell_9_4 5) (= cell_9_4 6) (= cell_9_4 7) (= cell_9_4 8) (= cell_9_4 9))))
(assert
 (let (($x6834 (= cell_1_5 9)))
 (let (($x3003 (= cell_1_5 8)))
 (let (($x3220 (= cell_1_5 7)))
 (let (($x1481 (= cell_1_5 6)))
 (let (($x3219 (= cell_1_5 5)))
 (let (($x1870 (= cell_1_5 4)))
 (let (($x227 (= cell_1_5 3)))
 (let (($x8212 (= cell_1_5 2)))
 (let (($x2178 (= cell_1_5 1)))
 (or $x2178 $x8212 $x227 $x1870 $x3219 $x1481 $x3220 $x3003 $x6834)))))))))))
(assert
 (let (($x1110 (= cell_2_5 2)))
 (or (= cell_2_5 1) $x1110 (= cell_2_5 3) (= cell_2_5 4) (= cell_2_5 5) (= cell_2_5 6) (= cell_2_5 7) (= cell_2_5 8) (= cell_2_5 9))))
(assert
 (let (($x2644 (= cell_3_5 9)))
 (let (($x2800 (= cell_3_5 8)))
 (let (($x2384 (= cell_3_5 7)))
 (let (($x1421 (= cell_3_5 6)))
 (let (($x863 (= cell_3_5 5)))
 (let (($x2755 (= cell_3_5 4)))
 (let (($x1693 (= cell_3_5 3)))
 (let (($x1098 (= cell_3_5 2)))
 (let (($x5018 (= cell_3_5 1)))
 (or $x5018 $x1098 $x1693 $x2755 $x863 $x1421 $x2384 $x2800 $x2644)))))))))))
(assert
 (let (($x2725 (= cell_4_5 9)))
 (let (($x2735 (= cell_4_5 8)))
 (let (($x2863 (= cell_4_5 7)))
 (let (($x1642 (= cell_4_5 6)))
 (let (($x1845 (= cell_4_5 5)))
 (let (($x3952 (= cell_4_5 4)))
 (let (($x1091 (= cell_4_5 3)))
 (let (($x1797 (= cell_4_5 2)))
 (let (($x5269 (= cell_4_5 1)))
 (or $x5269 $x1797 $x1091 $x3952 $x1845 $x1642 $x2863 $x2735 $x2725)))))))))))
(assert
 (let (($x336 (= cell_5_5 9)))
 (let (($x1440 (= cell_5_5 8)))
 (let (($x960 (= cell_5_5 7)))
 (let (($x715 (= cell_5_5 6)))
 (let (($x1365 (= cell_5_5 5)))
 (let (($x850 (= cell_5_5 4)))
 (let (($x996 (= cell_5_5 3)))
 (let (($x2044 (= cell_5_5 2)))
 (let (($x277 (= cell_5_5 1)))
 (or $x277 $x2044 $x996 $x850 $x1365 $x715 $x960 $x1440 $x336)))))))))))
(assert
 (let (($x609 (= cell_6_5 9)))
 (let (($x262 (= cell_6_5 8)))
 (let (($x4810 (= cell_6_5 7)))
 (let (($x184 (= cell_6_5 6)))
 (let (($x2734 (= cell_6_5 5)))
 (let (($x2255 (= cell_6_5 4)))
 (let (($x380 (= cell_6_5 3)))
 (let (($x3157 (= cell_6_5 2)))
 (let (($x3164 (= cell_6_5 1)))
 (or $x3164 $x3157 $x380 $x2255 $x2734 $x184 $x4810 $x262 $x609)))))))))))
(assert
 (let (($x134 (= cell_7_5 9)))
 (let (($x4894 (= cell_7_5 8)))
 (let (($x2658 (= cell_7_5 7)))
 (let (($x880 (= cell_7_5 6)))
 (let (($x214 (= cell_7_5 5)))
 (let (($x6442 (= cell_7_5 4)))
 (let (($x2315 (= cell_7_5 3)))
 (let (($x1049 (= cell_7_5 2)))
 (let (($x849 (= cell_7_5 1)))
 (or $x849 $x1049 $x2315 $x6442 $x214 $x880 $x2658 $x4894 $x134)))))))))))
(assert
 (let (($x2167 (= cell_8_5 1)))
 (or $x2167 (= cell_8_5 2) (= cell_8_5 3) (= cell_8_5 4) (= cell_8_5 5) (= cell_8_5 6) (= cell_8_5 7) (= cell_8_5 8) (= cell_8_5 9))))
(assert
 (let (($x3398 (= cell_9_5 2)))
 (let (($x1760 (= cell_9_5 1)))
 (or $x1760 $x3398 (= cell_9_5 3) (= cell_9_5 4) (= cell_9_5 5) (= cell_9_5 6) (= cell_9_5 7) (= cell_9_5 8) (= cell_9_5 9)))))
(assert
 (let (($x5996 (= cell_1_6 9)))
 (let (($x3108 (= cell_1_6 8)))
 (let (($x2177 (= cell_1_6 7)))
 (let (($x7910 (= cell_1_6 6)))
 (let (($x2650 (= cell_1_6 5)))
 (let (($x6972 (= cell_1_6 4)))
 (let (($x2139 (= cell_1_6 3)))
 (let (($x271 (= cell_1_6 2)))
 (let (($x1353 (= cell_1_6 1)))
 (or $x1353 $x271 $x2139 $x6972 $x2650 $x7910 $x2177 $x3108 $x5996)))))))))))
(assert
 (let (($x81 (= cell_2_6 9)))
 (let (($x2756 (= cell_2_6 8)))
 (let (($x1185 (= cell_2_6 7)))
 (let (($x2020 (= cell_2_6 6)))
 (let (($x6652 (= cell_2_6 5)))
 (let (($x175 (= cell_2_6 4)))
 (let (($x2798 (= cell_2_6 3)))
 (let (($x1199 (= cell_2_6 2)))
 (let (($x2111 (= cell_2_6 1)))
 (or $x2111 $x1199 $x2798 $x175 $x6652 $x2020 $x1185 $x2756 $x81)))))))))))
(assert
 (let (($x972 (= cell_3_6 9)))
 (let (($x4044 (= cell_3_6 8)))
 (let (($x2383 (= cell_3_6 7)))
 (let (($x7527 (= cell_3_6 6)))
 (let (($x2809 (= cell_3_6 5)))
 (let (($x1703 (= cell_3_6 4)))
 (let (($x1034 (= cell_3_6 3)))
 (let (($x1546 (= cell_3_6 2)))
 (let (($x1493 (= cell_3_6 1)))
 (or $x1493 $x1546 $x1034 $x1703 $x2809 $x7527 $x2383 $x4044 $x972)))))))))))
(assert
 (let (($x2904 (= cell_4_6 9)))
 (let (($x5393 (= cell_4_6 8)))
 (let (($x1977 (= cell_4_6 7)))
 (let (($x941 (= cell_4_6 6)))
 (let (($x1075 (= cell_4_6 5)))
 (let (($x4994 (= cell_4_6 4)))
 (let (($x2233 (= cell_4_6 3)))
 (let (($x2013 (= cell_4_6 2)))
 (let (($x2674 (= cell_4_6 1)))
 (or $x2674 $x2013 $x2233 $x4994 $x1075 $x941 $x1977 $x5393 $x2904)))))))))))
(assert
 (let (($x17 (= cell_5_6 2)))
 (or (= cell_5_6 1) $x17 (= cell_5_6 3) (= cell_5_6 4) (= cell_5_6 5) (= cell_5_6 6) (= cell_5_6 7) (= cell_5_6 8) (= cell_5_6 9))))
(assert
 (let (($x2031 (= cell_6_6 1)))
 (or $x2031 (= cell_6_6 2) (= cell_6_6 3) (= cell_6_6 4) (= cell_6_6 5) (= cell_6_6 6) (= cell_6_6 7) (= cell_6_6 8) (= cell_6_6 9))))
(assert
 (let (($x1611 (= cell_7_6 9)))
 (let (($x1046 (= cell_7_6 8)))
 (let (($x1721 (= cell_7_6 7)))
 (let (($x2652 (= cell_7_6 6)))
 (let (($x2884 (= cell_7_6 5)))
 (let (($x1632 (= cell_7_6 4)))
 (let (($x2977 (= cell_7_6 3)))
 (let (($x2882 (= cell_7_6 2)))
 (let (($x3692 (= cell_7_6 1)))
 (or $x3692 $x2882 $x2977 $x1632 $x2884 $x2652 $x1721 $x1046 $x1611)))))))))))
(assert
 (let (($x2332 (= cell_8_6 9)))
 (let (($x8226 (= cell_8_6 8)))
 (let (($x2049 (= cell_8_6 7)))
 (let (($x2596 (= cell_8_6 6)))
 (let (($x1634 (= cell_8_6 5)))
 (let (($x650 (= cell_8_6 4)))
 (let (($x399 (= cell_8_6 3)))
 (let (($x2190 (= cell_8_6 2)))
 (let (($x2242 (= cell_8_6 1)))
 (or $x2242 $x2190 $x399 $x650 $x1634 $x2596 $x2049 $x8226 $x2332)))))))))))
(assert
 (let (($x671 (= cell_9_6 2)))
 (let (($x629 (= cell_9_6 1)))
 (or $x629 $x671 (= cell_9_6 3) (= cell_9_6 4) (= cell_9_6 5) (= cell_9_6 6) (= cell_9_6 7) (= cell_9_6 8) (= cell_9_6 9)))))
(assert
 (let (($x2009 (= cell_1_7 9)))
 (let (($x195 (= cell_1_7 8)))
 (let (($x6126 (= cell_1_7 7)))
 (let (($x754 (= cell_1_7 6)))
 (let (($x7671 (= cell_1_7 5)))
 (let (($x2192 (= cell_1_7 4)))
 (let (($x5865 (= cell_1_7 3)))
 (let (($x98 (= cell_1_7 2)))
 (let (($x704 (= cell_1_7 1)))
 (or $x704 $x98 $x5865 $x2192 $x7671 $x754 $x6126 $x195 $x2009)))))))))))
(assert
 (let (($x5415 (= cell_2_7 3)))
 (or (= cell_2_7 1) (= cell_2_7 2) $x5415 (= cell_2_7 4) (= cell_2_7 5) (= cell_2_7 6) (= cell_2_7 7) (= cell_2_7 8) (= cell_2_7 9))))
(assert
 (let (($x3375 (= cell_3_7 9)))
 (let (($x4547 (= cell_3_7 8)))
 (let (($x2130 (= cell_3_7 7)))
 (let (($x2028 (= cell_3_7 6)))
 (let (($x5657 (= cell_3_7 5)))
 (let (($x2481 (= cell_3_7 4)))
 (let (($x3622 (= cell_3_7 3)))
 (let (($x1625 (= cell_3_7 2)))
 (let (($x2113 (= cell_3_7 1)))
 (or $x2113 $x1625 $x3622 $x2481 $x5657 $x2028 $x2130 $x4547 $x3375)))))))))))
(assert
 (let (($x4770 (= cell_4_7 9)))
 (let (($x5667 (= cell_4_7 8)))
 (let (($x438 (= cell_4_7 7)))
 (let (($x2965 (= cell_4_7 6)))
 (let (($x2302 (= cell_4_7 5)))
 (let (($x2588 (= cell_4_7 4)))
 (let (($x2839 (= cell_4_7 3)))
 (let (($x679 (= cell_4_7 2)))
 (let (($x4539 (= cell_4_7 1)))
 (or $x4539 $x679 $x2839 $x2588 $x2302 $x2965 $x438 $x5667 $x4770)))))))))))
(assert
 (let (($x2757 (= cell_5_7 9)))
 (let (($x3827 (= cell_5_7 8)))
 (let (($x2223 (= cell_5_7 7)))
 (let (($x1099 (= cell_5_7 6)))
 (let (($x2107 (= cell_5_7 5)))
 (let (($x580 (= cell_5_7 4)))
 (let (($x867 (= cell_5_7 3)))
 (let (($x294 (= cell_5_7 2)))
 (let (($x1559 (= cell_5_7 1)))
 (or $x1559 $x294 $x867 $x580 $x2107 $x1099 $x2223 $x3827 $x2757)))))))))))
(assert
 (let (($x1020 (= cell_6_7 9)))
 (let (($x5913 (= cell_6_7 8)))
 (let (($x713 (= cell_6_7 7)))
 (let (($x2343 (= cell_6_7 6)))
 (let (($x637 (= cell_6_7 5)))
 (let (($x3087 (= cell_6_7 4)))
 (let (($x169 (= cell_6_7 3)))
 (let (($x1278 (= cell_6_7 2)))
 (let (($x186 (= cell_6_7 1)))
 (or $x186 $x1278 $x169 $x3087 $x637 $x2343 $x713 $x5913 $x1020)))))))))))
(assert
 (let (($x2543 (= cell_7_7 1)))
 (or $x2543 (= cell_7_7 2) (= cell_7_7 3) (= cell_7_7 4) (= cell_7_7 5) (= cell_7_7 6) (= cell_7_7 7) (= cell_7_7 8) (= cell_7_7 9))))
(assert
 (let (($x4890 (= cell_8_7 2)))
 (or (= cell_8_7 1) $x4890 (= cell_8_7 3) (= cell_8_7 4) (= cell_8_7 5) (= cell_8_7 6) (= cell_8_7 7) (= cell_8_7 8) (= cell_8_7 9))))
(assert
 (let (($x1262 (= cell_9_7 3)))
 (let (($x2766 (= cell_9_7 2)))
 (let (($x2824 (= cell_9_7 1)))
 (or $x2824 $x2766 $x1262 (= cell_9_7 4) (= cell_9_7 5) (= cell_9_7 6) (= cell_9_7 7) (= cell_9_7 8) (= cell_9_7 9))))))
(assert
 (let (($x733 (= cell_1_8 1)))
 (or $x733 (= cell_1_8 2) (= cell_1_8 3) (= cell_1_8 4) (= cell_1_8 5) (= cell_1_8 6) (= cell_1_8 7) (= cell_1_8 8) (= cell_1_8 9))))
(assert
 (let (($x2169 (= cell_2_8 9)))
 (let (($x685 (= cell_2_8 8)))
 (let (($x6923 (= cell_2_8 7)))
 (let (($x2182 (= cell_2_8 6)))
 (let (($x341 (= cell_2_8 5)))
 (let (($x836 (= cell_2_8 4)))
 (let (($x5061 (= cell_2_8 3)))
 (let (($x142 (= cell_2_8 2)))
 (let (($x3395 (= cell_2_8 1)))
 (or $x3395 $x142 $x5061 $x836 $x341 $x2182 $x6923 $x685 $x2169)))))))))))
(assert
 (let (($x1309 (= cell_3_8 9)))
 (let (($x1257 (= cell_3_8 8)))
 (let (($x77 (= cell_3_8 7)))
 (let (($x1451 (= cell_3_8 6)))
 (let (($x2881 (= cell_3_8 5)))
 (let (($x1569 (= cell_3_8 4)))
 (let (($x1608 (= cell_3_8 3)))
 (let (($x1751 (= cell_3_8 2)))
 (let (($x3104 (= cell_3_8 1)))
 (or $x3104 $x1751 $x1608 $x1569 $x2881 $x1451 $x77 $x1257 $x1309)))))))))))
(assert
 (let (($x741 (= cell_4_8 9)))
 (let (($x5146 (= cell_4_8 8)))
 (let (($x2806 (= cell_4_8 7)))
 (let (($x4727 (= cell_4_8 6)))
 (let (($x5172 (= cell_4_8 5)))
 (let (($x2496 (= cell_4_8 4)))
 (let (($x759 (= cell_4_8 3)))
 (let (($x1628 (= cell_4_8 2)))
 (let (($x3373 (= cell_4_8 1)))
 (or $x3373 $x1628 $x759 $x2496 $x5172 $x4727 $x2806 $x5146 $x741)))))))))))
(assert
 (let (($x2321 (= cell_5_8 9)))
 (let (($x2336 (= cell_5_8 8)))
 (let (($x2958 (= cell_5_8 7)))
 (let (($x5564 (= cell_5_8 6)))
 (let (($x1189 (= cell_5_8 5)))
 (let (($x1407 (= cell_5_8 4)))
 (let (($x1139 (= cell_5_8 3)))
 (let (($x2878 (= cell_5_8 2)))
 (let (($x5060 (= cell_5_8 1)))
 (or $x5060 $x2878 $x1139 $x1407 $x1189 $x5564 $x2958 $x2336 $x2321)))))))))))
(assert
 (let (($x3028 (= cell_6_8 2)))
 (or (= cell_6_8 1) $x3028 (= cell_6_8 3) (= cell_6_8 4) (= cell_6_8 5) (= cell_6_8 6) (= cell_6_8 7) (= cell_6_8 8) (= cell_6_8 9))))
(assert
 (let (($x1420 (= cell_7_8 9)))
 (let (($x268 (= cell_7_8 8)))
 (let (($x3318 (= cell_7_8 7)))
 (let (($x2285 (= cell_7_8 6)))
 (let (($x758 (= cell_7_8 5)))
 (let (($x1061 (= cell_7_8 4)))
 (let (($x1312 (= cell_7_8 3)))
 (let (($x403 (= cell_7_8 2)))
 (let (($x3760 (= cell_7_8 1)))
 (or $x3760 $x403 $x1312 $x1061 $x758 $x2285 $x3318 $x268 $x1420)))))))))))
(assert
 (let (($x2783 (= cell_8_8 2)))
 (let (($x2477 (= cell_8_8 1)))
 (or $x2477 $x2783 (= cell_8_8 3) (= cell_8_8 4) (= cell_8_8 5) (= cell_8_8 6) (= cell_8_8 7) (= cell_8_8 8) (= cell_8_8 9)))))
(assert
 (let (($x3256 (= cell_9_8 2)))
 (let (($x1516 (= cell_9_8 1)))
 (or $x1516 $x3256 (= cell_9_8 3) (= cell_9_8 4) (= cell_9_8 5) (= cell_9_8 6) (= cell_9_8 7) (= cell_9_8 8) (= cell_9_8 9)))))
(assert
 (let (($x320 (= cell_1_9 2)))
 (or (= cell_1_9 1) $x320 (= cell_1_9 3) (= cell_1_9 4) (= cell_1_9 5) (= cell_1_9 6) (= cell_1_9 7) (= cell_1_9 8) (= cell_1_9 9))))
(assert
 (let (($x2821 (= cell_2_9 9)))
 (let (($x1859 (= cell_2_9 8)))
 (let (($x2100 (= cell_2_9 7)))
 (let (($x2229 (= cell_2_9 6)))
 (let (($x231 (= cell_2_9 5)))
 (let (($x705 (= cell_2_9 4)))
 (let (($x1772 (= cell_2_9 3)))
 (let (($x3424 (= cell_2_9 2)))
 (let (($x4622 (= cell_2_9 1)))
 (or $x4622 $x3424 $x1772 $x705 $x231 $x2229 $x2100 $x1859 $x2821)))))))))))
(assert
 (let (($x2822 (= cell_3_9 9)))
 (let (($x4433 (= cell_3_9 8)))
 (let (($x1904 (= cell_3_9 7)))
 (let (($x396 (= cell_3_9 6)))
 (let (($x207 (= cell_3_9 5)))
 (let (($x2991 (= cell_3_9 4)))
 (let (($x4882 (= cell_3_9 3)))
 (let (($x2054 (= cell_3_9 2)))
 (let (($x3393 (= cell_3_9 1)))
 (or $x3393 $x2054 $x4882 $x2991 $x207 $x396 $x1904 $x4433 $x2822)))))))))))
(assert
 (let (($x2841 (= cell_4_9 1)))
 (or $x2841 (= cell_4_9 2) (= cell_4_9 3) (= cell_4_9 4) (= cell_4_9 5) (= cell_4_9 6) (= cell_4_9 7) (= cell_4_9 8) (= cell_4_9 9))))
(assert
 (let (($x2278 (= cell_5_9 9)))
 (let (($x1948 (= cell_5_9 8)))
 (let (($x2087 (= cell_5_9 7)))
 (let (($x3249 (= cell_5_9 6)))
 (let (($x3421 (= cell_5_9 5)))
 (let (($x1343 (= cell_5_9 4)))
 (let (($x2910 (= cell_5_9 3)))
 (let (($x1509 (= cell_5_9 2)))
 (let (($x1024 (= cell_5_9 1)))
 (or $x1024 $x1509 $x2910 $x1343 $x3421 $x3249 $x2087 $x1948 $x2278)))))))))))
(assert
 (let (($x1280 (= cell_6_9 2)))
 (let (($x4752 (= cell_6_9 1)))
 (or $x4752 $x1280 (= cell_6_9 3) (= cell_6_9 4) (= cell_6_9 5) (= cell_6_9 6) (= cell_6_9 7) (= cell_6_9 8) (= cell_6_9 9)))))
(assert
 (let (($x1998 (= cell_7_9 9)))
 (let (($x2781 (= cell_7_9 8)))
 (let (($x85 (= cell_7_9 7)))
 (let (($x3139 (= cell_7_9 6)))
 (let (($x1038 (= cell_7_9 5)))
 (let (($x2264 (= cell_7_9 4)))
 (let (($x6612 (= cell_7_9 3)))
 (let (($x2363 (= cell_7_9 2)))
 (let (($x2705 (= cell_7_9 1)))
 (or $x2705 $x2363 $x6612 $x2264 $x1038 $x3139 $x85 $x2781 $x1998)))))))))))
(assert
 (let (($x1558 (= cell_8_9 2)))
 (let (($x505 (= cell_8_9 1)))
 (or $x505 $x1558 (= cell_8_9 3) (= cell_8_9 4) (= cell_8_9 5) (= cell_8_9 6) (= cell_8_9 7) (= cell_8_9 8) (= cell_8_9 9)))))
(assert
 (let (($x1287 (= cell_9_9 2)))
 (let (($x1982 (= cell_9_9 1)))
 (or $x1982 $x1287 (= cell_9_9 3) (= cell_9_9 4) (= cell_9_9 5) (= cell_9_9 6) (= cell_9_9 7) (= cell_9_9 8) (= cell_9_9 9)))))
(assert
 (and (distinct cell_1_1 cell_1_2 cell_1_3 cell_1_4 cell_1_5 cell_1_6 cell_1_7 cell_1_8 cell_1_9) true))
(assert
 (and (distinct cell_2_1 cell_2_2 cell_2_3 cell_2_4 cell_2_5 cell_2_6 cell_2_7 cell_2_8 cell_2_9) true))
(assert
 (and (distinct cell_3_1 cell_3_2 cell_3_3 cell_3_4 cell_3_5 cell_3_6 cell_3_7 cell_3_8 cell_3_9) true))
(assert
 (and (distinct cell_4_1 cell_4_2 cell_4_3 cell_4_4 cell_4_5 cell_4_6 cell_4_7 cell_4_8 cell_4_9) true))
(assert
 (and (distinct cell_5_1 cell_5_2 cell_5_3 cell_5_4 cell_5_5 cell_5_6 cell_5_7 cell_5_8 cell_5_9) true))
(assert
 (and (distinct cell_6_1 cell_6_2 cell_6_3 cell_6_4 cell_6_5 cell_6_6 cell_6_7 cell_6_8 cell_6_9) true))
(assert
 (and (distinct cell_7_1 cell_7_2 cell_7_3 cell_7_4 cell_7_5 cell_7_6 cell_7_7 cell_7_8 cell_7_9) true))
(assert
 (and (distinct cell_8_1 cell_8_2 cell_8_3 cell_8_4 cell_8_5 cell_8_6 cell_8_7 cell_8_8 cell_8_9) true))
(assert
 (and (distinct cell_9_1 cell_9_2 cell_9_3 cell_9_4 cell_9_5 cell_9_6 cell_9_7 cell_9_8 cell_9_9) true))
(assert
 (and (distinct cell_1_1 cell_2_1 cell_3_1 cell_4_1 cell_5_1 cell_6_1 cell_7_1 cell_8_1 cell_9_1) true))
(assert
 (and (distinct cell_1_2 cell_2_2 cell_3_2 cell_4_2 cell_5_2 cell_6_2 cell_7_2 cell_8_2 cell_9_2) true))
(assert
 (and (distinct cell_1_3 cell_2_3 cell_3_3 cell_4_3 cell_5_3 cell_6_3 cell_7_3 cell_8_3 cell_9_3) true))
(assert
 (and (distinct cell_1_4 cell_2_4 cell_3_4 cell_4_4 cell_5_4 cell_6_4 cell_7_4 cell_8_4 cell_9_4) true))
(assert
 (and (distinct cell_1_5 cell_2_5 cell_3_5 cell_4_5 cell_5_5 cell_6_5 cell_7_5 cell_8_5 cell_9_5) true))
(assert
 (and (distinct cell_1_6 cell_2_6 cell_3_6 cell_4_6 cell_5_6 cell_6_6 cell_7_6 cell_8_6 cell_9_6) true))
(assert
 (and (distinct cell_1_7 cell_2_7 cell_3_7 cell_4_7 cell_5_7 cell_6_7 cell_7_7 cell_8_7 cell_9_7) true))
(assert
 (and (distinct cell_1_8 cell_2_8 cell_3_8 cell_4_8 cell_5_8 cell_6_8 cell_7_8 cell_8_8 cell_9_8) true))
(assert
 (and (distinct cell_1_9 cell_2_9 cell_3_9 cell_4_9 cell_5_9 cell_6_9 cell_7_9 cell_8_9 cell_9_9) true))
(assert
 (and (distinct cell_1_1 cell_1_2 cell_1_3 cell_2_1 cell_2_2 cell_2_3 cell_3_1 cell_3_2 cell_3_3) true))
(assert
 (and (distinct cell_1_4 cell_1_5 cell_1_6 cell_2_4 cell_2_5 cell_2_6 cell_3_4 cell_3_5 cell_3_6) true))
(assert
 (and (distinct cell_1_7 cell_1_8 cell_1_9 cell_2_7 cell_2_8 cell_2_9 cell_3_7 cell_3_8 cell_3_9) true))
(assert
 (and (distinct cell_4_1 cell_4_2 cell_4_3 cell_5_1 cell_5_2 cell_5_3 cell_6_1 cell_6_2 cell_6_3) true))
(assert
 (and (distinct cell_4_4 cell_4_5 cell_4_6 cell_5_4 cell_5_5 cell_5_6 cell_6_4 cell_6_5 cell_6_6) true))
(assert
 (and (distinct cell_4_7 cell_4_8 cell_4_9 cell_5_7 cell_5_8 cell_5_9 cell_6_7 cell_6_8 cell_6_9) true))
(assert
 (and (distinct cell_7_1 cell_7_2 cell_7_3 cell_8_1 cell_8_2 cell_8_3 cell_9_1 cell_9_2 cell_9_3) true))
(assert
 (and (distinct cell_7_4 cell_7_5 cell_7_6 cell_8_4 cell_8_5 cell_8_6 cell_9_4 cell_9_5 cell_9_6) true))
(assert
 (and (distinct cell_7_7 cell_7_8 cell_7_9 cell_8_7 cell_8_8 cell_8_9 cell_9_7 cell_9_8 cell_9_9) true))
(assert
 (let (($x1276 (and (distinct cell_5_9 cell_6_8 cell_7_7 cell_8_6) true)))
 (let (($x2163 (and (distinct cell_2_9 cell_3_8 cell_4_7 cell_5_6 cell_6_5 cell_7_4 cell_8_3 cell_9_2) true)))
 (let (($x4899 (and (distinct cell_1_8 cell_2_7 cell_3_6 cell_4_5 cell_5_4 cell_6_3 cell_7_2 cell_8_1) true)))
 (let (($x3203 (and (distinct cell_1_5 cell_2_4 cell_3_3 cell_4_2) true)))
 (let (($x4149 (and (distinct cell_5_1 cell_6_2 cell_7_3 cell_8_4) true)))
 (let (($x930 (and (distinct cell_2_1 cell_3_2 cell_4_3 cell_5_4 cell_6_5 cell_7_6 cell_8_7 cell_9_8) true)))
 (let (($x2219 (and (distinct cell_1_2 cell_2_3 cell_3_4 cell_4_5 cell_5_6 cell_6_7 cell_7_8 cell_8_9) true)))
 (let (($x131 (and (distinct cell_1_5 cell_2_6 cell_3_7 cell_4_8) true)))
 (and $x131 $x2219 $x930 $x4149 $x3203 $x4899 $x2163 $x1276))))))))))
(assert
 (and (distinct cell_3_3 3) true))
(check-sat)
